/*********************************************
 * OPL 12.6.0.0 Data
 * Author: Adrian Rodriguez Bazaga, Pau Rodriguez Esmerats
 * Creation Date: 23/11/2017 at 07:17:40
 *********************************************/

nNurses=78;
maxConsec=2;
maxPresence=7;
maxHours=5;
minHours=1;
demand= [24 20 21 27 20 21 27 20 11 3 3 1 3 3 3 3 2 3 0 2 14 30 16 25  ];
